Minimize
    2 x0 + 5 x1 + 7 x2 + 8 x3 + 11 x4 + 13 x5 + 16 x6 + 22 x7 + 26 x8 + 26 x9 + 27 x10 + 29 x11 + 32 x12 + 36 x13 + 38 x14 + 55 x15 + 57 x16 + 65 x17 + 70 x18 + 73 x19 + 84 x20 + 87 x21 + 88 x22 + 93 x23 + 96 x24 + 111 x25 + 111 x26 + 114 x27 + 115 x28 + 116 x29 + 121 x30 + 133 x31 + 134 x32 + 134 x33 + 138 x34 + 141 x35 + 143 x36 + 147 x37 + 147 x38 + 150 x39 + 159 x40 + 164 x41 + 186 x42 + 188 x43 + 191 x44 + 197 x45 + 198 x46 + 199 x47 + 201 x48 + 204 x49 + 210 x50 + 212 x51 + 223 x52 + 223 x53 + 224 x54 + 233 x55 + 239 x56 + 241 x57 + 241 x58 + 246 x59 + 246 x60 + 250 x61 + 254 x62 + 255 x63
Subject To
    c0: -34 x0 - 126 x1 - 115 x2 - 63 x3 - 50 x4 + 99 x5 - 62 x6 - 20 x7 + 62 x8 + 92 x9 - 60 x10 - 26 x11 + 44 x12 + 34 x13 + 44 x14 - 99 x15 + 127 x16 - 57 x17 - 84 x18 + 57 x19 + 61 x20 - 19 x21 - 122 x22 - 124 x23 + 119 x24 + 29 x25 - 110 x26 - 5 x27 - 114 x28 + 32 x29 - 11 x30 - 16 x31 + 111 x32 + 127 x33 - 26 x34 - 119 x35 + 36 x36 - 11 x37 + 31 x38 + 108 x39 - 97 x40 + 21 x41 + 34 x42 + 122 x43 + 115 x44 - 14 x45 + 66 x46 - 78 x47 + 5 x48 - 77 x49 + 41 x50 + 127 x51 - 13 x52 - 35 x53 + 80 x54 - 25 x55 - 62 x56 + 48 x57 - 73 x58 + 67 x59 + 34 x60 + 49 x61 + 24 x62 - 37 x63 >= -460
    c1: 80 x0 - 4 x1 + 127 x2 + 70 x3 - 3 x4 + 34 x5 - 20 x6 - 39 x7 + 21 x8 + 8 x9 - 12 x10 + 68 x11 - 47 x12 + 36 x13 - 80 x14 + 125 x15 - 113 x16 - 61 x17 - 3 x18 + 2 x19 + 75 x20 - 66 x21 - 54 x22 + 25 x23 - 43 x24 - 68 x25 - 125 x26 - 17 x27 + 87 x28 + 8 x29 - 37 x30 + 29 x31 + 83 x32 - 34 x33 - 75 x34 + 74 x35 - 108 x36 - 9 x37 + 89 x38 + 10 x39 + 117 x40 - 52 x41 + 62 x42 + 58 x43 + 85 x44 - 120 x45 + 20 x46 + 94 x47 - 71 x48 - 21 x49 - 36 x50 + 114 x51 + 65 x52 - 35 x53 - 54 x54 + 62 x55 - 8 x56 - 119 x57 - 47 x58 - 82 x59 + 3 x60 + 123 x61 - 122 x62 - 117 x63 >= -1003
    c2: -87 x0 + 17 x1 - 24 x2 - 89 x3 - 116 x4 + 32 x5 - 86 x6 - 16 x7 + 93 x8 - 34 x9 + 67 x10 - 21 x11 - 74 x12 + 79 x13 + 103 x14 - 22 x15 + 92 x16 + 51 x17 + 64 x18 - 96 x19 + 46 x20 - 70 x21 - 2 x22 + 35 x23 + 78 x24 + 71 x25 + 65 x26 - 119 x27 + 73 x28 - 19 x29 + 1 x30 + 104 x31 + 31 x32 + 28 x33 + 67 x34 - 21 x35 - 55 x36 + 3 x37 - 26 x38 + 47 x39 + 91 x40 + 119 x41 - 96 x42 + 1 x43 + 17 x44 + 34 x45 - 38 x46 - 40 x47 + 73 x48 + 51 x49 - 2 x50 + 50 x51 + 77 x52 + 44 x53 - 108 x54 + 96 x55 - 57 x56 - 93 x57 + 60 x58 - 115 x59 - 74 x60 - 70 x61 - 119 x62 - 64 x63 >= -357
    c3: -59 x0 + 74 x1 + 0 x2 + 21 x3 + 56 x4 - 67 x5 - 12 x6 + 77 x7 + 6 x8 + 95 x9 - 96 x10 - 49 x11 + 31 x12 - 65 x13 + 106 x14 - 87 x15 - 95 x16 - 89 x17 - 87 x18 + 1 x19 + 117 x20 + 127 x21 + 14 x22 - 64 x23 + 75 x24 + 35 x25 + 8 x26 - 109 x27 - 62 x28 + 61 x29 - 112 x30 - 127 x31 + 98 x32 + 53 x33 + 19 x34 - 101 x35 + 12 x36 + 33 x37 - 95 x38 + 121 x39 - 128 x40 - 62 x41 - 37 x42 - 106 x43 + 105 x44 + 15 x45 + 48 x46 - 14 x47 - 11 x48 - 109 x49 + 63 x50 + 96 x51 + 98 x52 - 87 x53 + 126 x54 + 53 x55 + 16 x56 + 18 x57 - 73 x58 + 23 x59 - 7 x60 + 81 x61 - 45 x62 - 98 x63 >= -810
    c4: -22 x0 + 122 x1 + 85 x2 - 83 x3 - 74 x4 - 103 x5 + 76 x6 + 56 x7 - 10 x8 + 93 x9 - 5 x10 + 121 x11 + 71 x12 - 117 x13 - 72 x14 - 99 x15 - 88 x16 - 34 x17 + 8 x18 + 116 x19 - 48 x20 + 75 x21 - 49 x22 - 43 x23 - 73 x24 - 97 x25 - 49 x26 - 27 x27 + 67 x28 + 52 x29 + 49 x30 - 36 x31 + 18 x32 - 79 x33 - 40 x34 + 16 x35 - 44 x36 - 122 x37 - 22 x38 - 14 x39 - 82 x40 - 117 x41 + 24 x42 + 63 x43 + 81 x44 - 54 x45 - 67 x46 + 24 x47 + 86 x48 - 48 x49 + 79 x50 - 37 x51 - 51 x52 - 54 x53 + 21 x54 + 87 x55 + 51 x56 - 98 x57 - 79 x58 + 38 x59 - 46 x60 + 18 x61 + 50 x62 + 127 x63 >= -680
    c5: 63 x0 + 101 x1 - 68 x2 - 53 x3 + 2 x4 + 60 x5 - 62 x6 - 58 x7 - 64 x8 - 76 x9 + 17 x10 - 91 x11 - 12 x12 + 9 x13 - 111 x14 - 117 x15 + 104 x16 - 65 x17 - 109 x18 + 24 x19 + 74 x20 + 44 x21 + 54 x22 - 100 x23 + 78 x24 + 123 x25 - 29 x26 - 78 x27 + 76 x28 + 116 x29 + 107 x30 - 52 x31 + 90 x32 - 9 x33 + 57 x34 - 29 x35 + 36 x36 + 94 x37 + 48 x38 + 45 x39 + 105 x40 - 50 x41 - 46 x42 - 116 x43 + 86 x44 - 87 x45 + 42 x46 - 99 x47 - 111 x48 + 120 x49 + 25 x50 + 69 x51 - 39 x52 + 2 x53 + 105 x54 + 78 x55 + 93 x56 - 38 x57 - 20 x58 + 79 x59 + 21 x60 - 78 x61 + 61 x62 + 35 x63 >= -312
    c6: 56 x0 - 79 x1 - 107 x2 - 10 x3 - 105 x4 - 82 x5 + 97 x6 + 111 x7 - 92 x8 + 123 x9 + 33 x10 - 17 x11 - 85 x12 - 98 x13 - 1 x14 - 83 x15 - 67 x16 + 38 x17 - 21 x18 - 72 x19 - 89 x20 + 86 x21 + 86 x22 - 108 x23 - 106 x24 - 38 x25 - 38 x26 - 13 x27 + 35 x28 - 117 x29 - 103 x30 - 93 x31 + 24 x32 + 85 x33 + 75 x34 + 31 x35 + 105 x36 + 65 x37 + 90 x38 - 94 x39 - 4 x40 - 56 x41 + 79 x42 - 61 x43 + 74 x44 + 94 x45 - 124 x46 + 33 x47 + 80 x48 + 88 x49 + 102 x50 - 124 x51 + 125 x52 + 50 x53 - 109 x54 - 66 x55 + 31 x56 + 15 x57 - 12 x58 + 32 x59 - 116 x60 - 84 x61 - 6 x62 + 42 x63 >= -1040
    c7: -122 x0 + 66 x1 + 69 x2 - 7 x3 + 34 x4 + 68 x5 + 45 x6 - 58 x7 + 30 x8 + 96 x9 + 112 x10 + 107 x11 - 25 x12 + 2 x13 + 33 x14 - 50 x15 - 104 x16 - 88 x17 - 62 x18 - 5 x19 - 7 x20 - 5 x21 + 41 x22 + 107 x23 + 81 x24 - 93 x25 + 0 x26 + 40 x27 - 54 x28 + 51 x29 - 45 x30 - 113 x31 - 77 x32 - 22 x33 + 120 x34 - 51 x35 + 82 x36 + 91 x37 + 81 x38 + 50 x39 - 10 x40 - 105 x41 + 73 x42 - 100 x43 + 41 x44 + 114 x45 + 28 x46 - 42 x47 - 99 x48 + 92 x49 - 20 x50 - 2 x51 + 114 x52 + 16 x53 - 69 x54 - 32 x55 - 124 x56 - 15 x57 + 109 x58 - 104 x59 + 23 x60 - 52 x61 + 21 x62 - 12 x63 >= -583
    c8: 101 x0 + 33 x1 - 83 x2 + 79 x3 - 65 x4 - 72 x5 + 33 x6 + 43 x7 - 57 x8 - 33 x9 + 112 x10 + 14 x11 + 96 x12 - 40 x13 + 113 x14 + 69 x15 + 113 x16 - 36 x17 - 81 x18 + 69 x19 - 74 x20 + 17 x21 - 24 x22 + 33 x23 - 118 x24 - 57 x25 - 44 x26 - 58 x27 - 82 x28 + 121 x29 - 7 x30 - 43 x31 + 60 x32 + 52 x33 - 100 x34 + 8 x35 + 81 x36 - 118 x37 - 99 x38 + 70 x39 - 121 x40 + 80 x41 + 19 x42 + 85 x43 - 1 x44 - 116 x45 - 95 x46 - 87 x47 - 105 x48 + 8 x49 - 13 x50 - 27 x51 - 2 x52 - 88 x53 - 16 x54 - 102 x55 + 20 x56 + 101 x57 - 121 x58 + 103 x59 + 30 x60 + 105 x61 + 103 x62 - 81 x63 >= -637
    c9: 111 x0 - 115 x1 - 110 x2 - 84 x3 + 90 x4 - 17 x5 + 0 x6 + 67 x7 - 31 x8 + 88 x9 - 80 x10 + 65 x11 + 87 x12 + 2 x13 - 42 x14 + 45 x15 + 3 x16 - 44 x17 + 122 x18 + 101 x19 + 72 x20 + 73 x21 + 17 x22 + 91 x23 - 103 x24 - 44 x25 - 3 x26 - 55 x27 + 70 x28 + 26 x29 + 120 x30 - 27 x31 + 96 x32 - 87 x33 + 119 x34 - 112 x35 - 105 x36 + 87 x37 - 55 x38 + 30 x39 + 127 x40 + 82 x41 + 23 x42 - 6 x43 + 93 x44 + 20 x45 - 64 x46 - 126 x47 - 97 x48 + 90 x49 - 42 x50 + 32 x51 - 92 x52 - 66 x53 - 39 x54 - 80 x55 + 105 x56 + 0 x57 - 54 x58 + 124 x59 - 127 x60 + 90 x61 + 79 x62 + 31 x63 >= -123
    c10: -58 x0 + 45 x1 + 59 x2 + 86 x3 + 22 x4 + 70 x5 - 95 x6 - 121 x7 + 53 x8 - 48 x9 + 115 x10 + 33 x11 - 10 x12 + 68 x13 + 1 x14 + 81 x15 - 45 x16 + 108 x17 - 19 x18 - 13 x19 + 25 x20 - 96 x21 - 1 x22 + 8 x23 - 1 x24 - 82 x25 + 89 x26 + 95 x27 - 8 x28 - 3 x29 - 109 x30 + 82 x31 - 94 x32 + 36 x33 + 87 x34 - 126 x35 - 35 x36 + 106 x37 + 76 x38 + 22 x39 + 22 x40 - 106 x41 + 53 x42 - 89 x43 - 127 x44 - 18 x45 + 84 x46 - 49 x47 - 5 x48 + 116 x49 - 42 x50 - 9 x51 + 68 x52 - 64 x53 - 85 x54 - 26 x55 + 64 x56 - 27 x57 - 62 x58 - 29 x59 + 119 x60 - 28 x61 + 4 x62 - 46 x63 >= -243
    c11: -71 x0 + 88 x1 - 66 x2 - 37 x3 - 39 x4 + 80 x5 - 105 x6 - 90 x7 + 86 x8 - 50 x9 + 126 x10 - 2 x11 + 40 x12 + 74 x13 + 5 x14 + 64 x15 + 31 x16 - 126 x17 + 121 x18 - 93 x19 - 18 x20 + 56 x21 + 78 x22 - 117 x23 + 49 x24 + 73 x25 + 95 x26 + 60 x27 + 13 x28 - 112 x29 - 69 x30 + 47 x31 + 37 x32 - 66 x33 + 45 x34 + 86 x35 + 102 x36 - 89 x37 + 1 x38 + 66 x39 - 109 x40 + 74 x41 + 82 x42 + 21 x43 - 35 x44 - 95 x45 + 81 x46 - 58 x47 + 125 x48 - 100 x49 - 11 x50 + 57 x51 - 69 x52 + 118 x53 + 120 x54 + 67 x55 + 103 x56 - 120 x57 - 47 x58 - 103 x59 + 33 x60 - 43 x61 + 43 x62 - 38 x63 >= -297
    c12: -92 x0 + 17 x1 + 38 x2 - 100 x3 - 85 x4 - 53 x5 + 48 x6 + 126 x7 + 68 x8 + 90 x9 - 54 x10 + 121 x11 + 127 x12 - 27 x13 + 31 x14 + 52 x15 - 54 x16 + 47 x17 - 80 x18 - 13 x19 - 59 x20 + 84 x21 + 19 x22 - 69 x23 - 110 x24 + 106 x25 - 19 x26 + 15 x27 - 59 x28 + 4 x29 + 16 x30 + 36 x31 - 42 x32 - 51 x33 + 75 x34 - 118 x35 + 101 x36 - 57 x37 - 81 x38 - 125 x39 - 13 x40 + 114 x41 - 121 x42 + 127 x43 + 31 x44 - 22 x45 - 116 x46 + 105 x47 + 78 x48 - 69 x49 - 79 x50 + 23 x51 - 50 x52 + 67 x53 + 53 x54 + 19 x55 - 48 x56 - 72 x57 - 87 x58 + 22 x59 - 36 x60 - 72 x61 - 113 x62 - 70 x63 >= -549
    c13: 77 x0 + 18 x1 + 27 x2 - 121 x3 - 101 x4 - 105 x5 + 68 x6 + 44 x7 + 41 x8 + 26 x9 + 106 x10 - 13 x11 + 126 x12 - 92 x13 - 63 x14 + 26 x15 - 46 x16 + 52 x17 - 21 x18 + 3 x19 - 84 x20 - 33 x21 + 50 x22 + 23 x23 - 101 x24 + 124 x25 + 14 x26 + 90 x27 + 34 x28 + 42 x29 + 5 x30 + 112 x31 - 28 x32 - 76 x33 + 40 x34 - 74 x35 + 94 x36 + 14 x37 + 95 x38 + 41 x39 - 3 x40 - 102 x41 - 29 x42 + 36 x43 + 112 x44 - 116 x45 - 6 x46 + 72 x47 - 11 x48 - 12 x49 - 2 x50 - 7 x51 - 45 x52 + 39 x53 - 117 x54 - 114 x55 - 83 x56 - 108 x57 + 32 x58 + 20 x59 + 45 x60 + 25 x61 - 55 x62 - 83 x63 >= -289
    c14: -5 x0 - 109 x1 + 36 x2 - 36 x3 + 18 x4 - 54 x5 + 92 x6 + 6 x7 + 29 x8 + 21 x9 - 99 x10 + 41 x11 - 110 x12 - 91 x13 + 76 x14 + 31 x15 + 66 x16 + 32 x17 - 67 x18 - 32 x19 - 23 x20 - 119 x21 - 51 x22 - 103 x23 + 26 x24 - 30 x25 - 1 x26 + 124 x27 + 13 x28 - 114 x29 - 113 x30 + 108 x31 - 113 x32 - 26 x33 - 54 x34 - 13 x35 - 87 x36 + 109 x37 - 3 x38 + 57 x39 - 66 x40 + 99 x41 + 65 x42 + 116 x43 + 59 x44 - 83 x45 + 41 x46 - 30 x47 - 45 x48 - 73 x49 - 10 x50 + 39 x51 - 79 x52 + 100 x53 - 7 x54 + 6 x55 - 83 x56 - 16 x57 + 66 x58 + 31 x59 + 85 x60 - 105 x61 + 14 x62 - 22 x63 >= -610
    c15: -61 x0 + 19 x1 + 47 x2 - 81 x3 - 22 x4 - 99 x5 + 55 x6 - 96 x7 - 63 x8 - 66 x9 - 53 x10 + 48 x11 + 39 x12 + 45 x13 - 46 x14 - 127 x15 - 113 x16 - 97 x17 - 58 x18 + 107 x19 - 34 x20 - 58 x21 - 44 x22 + 60 x23 + 9 x24 - 57 x25 - 94 x26 + 57 x27 + 43 x28 + 14 x29 + 82 x30 + 8 x31 + 124 x32 + 52 x33 - 106 x34 + 104 x35 + 116 x36 + 118 x37 - 15 x38 + 35 x39 + 92 x40 - 32 x41 - 48 x42 - 53 x43 + 12 x44 + 111 x45 + 26 x46 - 32 x47 + 38 x48 + 99 x49 - 14 x50 + 14 x51 + 72 x52 + 79 x53 + 29 x54 - 66 x55 + 97 x56 - 68 x57 + 61 x58 + 22 x59 - 20 x60 + 106 x61 + 114 x62 + 106 x63 >= -204
    c16: -83 x0 - 32 x1 + 75 x2 - 4 x3 + 77 x4 - 68 x5 + 88 x6 + 26 x7 - 102 x8 + 44 x9 + 48 x10 - 123 x11 - 38 x12 + 90 x13 + 84 x14 - 4 x15 + 107 x16 + 37 x17 - 8 x18 - 88 x19 - 47 x20 - 119 x21 - 2 x22 + 57 x23 + 21 x24 + 42 x25 + 51 x26 - 72 x27 + 123 x28 - 94 x29 - 17 x30 + 88 x31 - 84 x32 + 18 x33 - 33 x34 + 87 x35 + 22 x36 - 36 x37 - 81 x38 + 101 x39 + 121 x40 + 55 x41 + 4 x42 + 75 x43 + 50 x44 - 17 x45 + 39 x46 + 19 x47 - 80 x48 + 6 x49 - 11 x50 + 59 x51 - 66 x52 - 111 x53 + 82 x54 + 120 x55 + 93 x56 + 114 x57 + 65 x58 + 119 x59 - 40 x60 - 47 x61 + 63 x62 - 69 x63 >= -211
    c17: -32 x0 - 30 x1 + 15 x2 + 104 x3 + 88 x4 - 119 x5 + 75 x6 - 123 x7 - 57 x8 + 21 x9 - 89 x10 + 124 x11 + 70 x12 - 26 x13 - 82 x14 - 13 x15 + 105 x16 - 18 x17 - 18 x18 - 24 x19 + 57 x20 - 75 x21 + 47 x22 + 90 x23 - 21 x24 - 94 x25 - 63 x26 - 3 x27 + 109 x28 - 107 x29 - 98 x30 - 70 x31 - 16 x32 + 18 x33 + 35 x34 + 105 x35 - 72 x36 - 30 x37 + 101 x38 + 72 x39 + 77 x40 + 116 x41 - 102 x42 + 7 x43 + 29 x44 + 33 x45 - 61 x46 + 107 x47 - 37 x48 + 38 x49 + 13 x50 + 116 x51 + 4 x52 + 45 x53 - 54 x54 - 41 x55 + 120 x56 - 57 x57 + 105 x58 - 42 x59 - 56 x60 - 16 x61 + 54 x62 + 18 x63 >= -462
    c18: 126 x0 - 14 x1 - 83 x2 + 21 x3 + 13 x4 + 109 x5 - 30 x6 + 116 x7 - 78 x8 - 75 x9 - 112 x10 + 99 x11 - 128 x12 - 115 x13 - 56 x14 + 87 x15 + 73 x16 + 89 x17 + 0 x18 - 68 x19 + 90 x20 - 9 x21 + 30 x22 + 12 x23 + 22 x24 + 122 x25 - 6 x26 + 31 x27 + 78 x28 + 108 x29 + 49 x30 + 47 x31 + 42 x32 + 12 x33 - 92 x34 + 118 x35 - 101 x36 - 71 x37 + 29 x38 - 40 x39 - 60 x40 - 16 x41 - 68 x42 - 52 x43 + 28 x44 - 60 x45 - 30 x46 - 86 x47 + 29 x48 + 73 x49 - 15 x50 - 107 x51 + 117 x52 - 105 x53 + 37 x54 + 29 x55 - 32 x56 - 104 x57 - 52 x58 - 94 x59 - 87 x60 + 41 x61 + 12 x62 - 110 x63 >= -650
    c19: -127 x0 + 101 x1 - 62 x2 - 57 x3 + 19 x4 + 48 x5 - 52 x6 + 4 x7 + 85 x8 - 94 x9 + 122 x10 + 12 x11 - 40 x12 - 50 x13 - 112 x14 - 15 x15 - 16 x16 - 49 x17 - 54 x18 + 89 x19 - 97 x20 + 120 x21 + 72 x22 + 114 x23 - 115 x24 - 101 x25 + 115 x26 - 112 x27 - 120 x28 - 62 x29 - 9 x30 + 108 x31 + 94 x32 + 10 x33 - 16 x34 + 3 x35 + 36 x36 - 23 x37 - 115 x38 - 128 x39 + 73 x40 + 1 x41 - 36 x42 - 43 x43 + 111 x44 - 97 x45 - 43 x46 + 78 x47 - 9 x48 - 98 x49 + 86 x50 - 119 x51 - 25 x52 + 33 x53 - 54 x54 - 45 x55 + 96 x56 - 104 x57 + 41 x58 + 108 x59 - 58 x60 - 59 x61 - 40 x62 - 127 x63 >= -838
    c20: 57 x0 + 63 x1 - 35 x2 - 33 x3 - 33 x4 + 107 x5 + 100 x6 - 77 x7 + 84 x8 + 101 x9 - 30 x10 - 17 x11 - 9 x12 + 42 x13 + 112 x14 - 123 x15 + 114 x16 - 12 x17 - 60 x18 - 16 x19 - 49 x20 + 101 x21 - 58 x22 - 24 x23 - 55 x24 + 20 x25 + 58 x26 + 62 x27 + 98 x28 - 68 x29 + 18 x30 - 73 x31 + 99 x32 - 22 x33 + 30 x34 + 29 x35 - 98 x36 + 18 x37 - 94 x38 - 68 x39 - 23 x40 + 64 x41 - 45 x42 + 123 x43 + 102 x44 - 15 x45 - 60 x46 + 38 x47 - 92 x48 - 10 x49 - 39 x50 + 54 x51 - 40 x52 + 98 x53 - 83 x54 + 27 x55 + 6 x56 - 110 x57 + 66 x58 + 83 x59 - 66 x60 - 8 x61 - 80 x62 - 60 x63 >= -238
    c21: 45 x0 + 79 x1 + 13 x2 + 25 x3 + 13 x4 - 110 x5 - 123 x6 - 55 x7 - 40 x8 + 113 x9 - 28 x10 - 23 x11 + 70 x12 + 23 x13 - 73 x14 - 85 x15 - 44 x16 + 29 x17 - 97 x18 + 57 x19 - 106 x20 - 44 x21 + 94 x22 + 68 x23 + 74 x24 + 83 x25 - 10 x26 - 63 x27 - 89 x28 - 87 x29 - 68 x30 - 34 x31 - 127 x32 + 52 x33 - 103 x34 - 77 x35 + 118 x36 + 71 x37 + 94 x38 - 87 x39 - 70 x40 + 18 x41 + 27 x42 + 118 x43 + 113 x44 - 27 x45 + 107 x46 - 69 x47 + 36 x48 - 22 x49 - 17 x50 - 114 x51 + 2 x52 - 15 x53 + 61 x54 + 121 x55 - 78 x56 - 112 x57 + 37 x58 + 23 x59 + 28 x60 - 14 x61 + 20 x62 + 80 x63 >= -337
    c22: -99 x0 + 50 x1 + 30 x2 - 92 x3 + 117 x4 + 4 x5 - 118 x6 + 49 x7 + 96 x8 - 101 x9 + 126 x10 + 109 x11 + 100 x12 + 24 x13 - 55 x14 + 112 x15 + 85 x16 + 114 x17 - 14 x18 + 73 x19 - 75 x20 - 13 x21 - 79 x22 + 13 x23 + 98 x24 - 22 x25 + 11 x26 + 16 x27 + 46 x28 - 94 x29 + 37 x30 + 96 x31 - 32 x32 + 86 x33 + 77 x34 - 20 x35 + 40 x36 + 76 x37 + 92 x38 - 117 x39 + 82 x40 - 116 x41 - 5 x42 - 19 x43 - 39 x44 + 83 x45 + 31 x46 + 48 x47 - 63 x48 - 125 x49 - 120 x50 + 73 x51 - 31 x52 - 23 x53 - 28 x54 + 38 x55 - 89 x56 + 22 x57 + 12 x58 + 5 x59 + 127 x60 - 67 x61 + 26 x62 - 14 x63 >= -7
    c23: 74 x0 - 73 x1 + 47 x2 + 64 x3 + 49 x4 - 67 x5 - 58 x6 - 38 x7 + 52 x8 + 101 x9 + 33 x10 + 18 x11 + 26 x12 + 96 x13 + 103 x14 - 102 x15 - 85 x16 - 39 x17 - 126 x18 - 111 x19 - 55 x20 - 46 x21 - 52 x22 - 81 x23 + 77 x24 + 114 x25 + 30 x26 - 11 x27 + 62 x28 - 7 x29 + 38 x30 + 25 x31 + 94 x32 + 16 x33 + 116 x34 - 96 x35 - 5 x36 - 33 x37 + 33 x38 + 83 x39 + 99 x40 + 50 x41 + 109 x42 + 12 x43 + 80 x44 + 107 x45 + 97 x46 - 70 x47 - 41 x48 + 41 x49 + 23 x50 + 4 x51 - 90 x52 + 12 x53 - 128 x54 + 47 x55 + 4 x56 - 103 x57 + 107 x58 - 102 x59 - 123 x60 - 6 x61 - 69 x62 + 111 x63 >= -53
    c24: -86 x0 + 90 x1 + 72 x2 - 104 x3 - 43 x4 + 52 x5 + 54 x6 - 83 x7 - 92 x8 - 5 x9 - 38 x10 - 42 x11 - 66 x12 - 82 x13 + 85 x14 + 20 x15 - 62 x16 - 63 x17 + 33 x18 - 107 x19 + 92 x20 + 17 x21 + 45 x22 - 6 x23 + 1 x24 + 67 x25 + 111 x26 + 16 x27 - 24 x28 - 109 x29 - 100 x30 - 18 x31 + 59 x32 - 59 x33 + 47 x34 + 49 x35 - 61 x36 - 41 x37 - 118 x38 + 41 x39 + 60 x40 - 93 x41 + 62 x42 + 40 x43 + 25 x44 + 22 x45 - 59 x46 + 42 x47 + 71 x48 + 0 x49 + 25 x50 - 31 x51 - 113 x52 + 7 x53 - 92 x54 - 83 x55 - 47 x56 - 50 x57 - 121 x58 - 122 x59 - 10 x60 - 40 x61 + 9 x62 + 111 x63 >= -824
    c25: 46 x0 + 62 x1 + 9 x2 + 64 x3 + 36 x4 + 64 x5 + 84 x6 + 82 x7 - 126 x8 + 74 x9 + 68 x10 - 42 x11 - 64 x12 + 80 x13 - 124 x14 - 97 x15 + 20 x16 - 105 x17 - 99 x18 + 91 x19 + 116 x20 + 95 x21 + 126 x22 - 4 x23 + 31 x24 + 0 x25 - 46 x26 - 32 x27 + 117 x28 + 104 x29 - 84 x30 + 65 x31 - 83 x32 - 127 x33 + 42 x34 - 76 x35 + 25 x36 - 86 x37 + 111 x38 + 77 x39 + 99 x40 + 55 x41 - 90 x42 - 42 x43 + 38 x44 - 2 x45 - 3 x46 - 97 x47 + 37 x48 - 30 x49 - 109 x50 + 99 x51 + 23 x52 - 103 x53 + 2 x54 + 110 x55 - 66 x56 - 78 x57 + 98 x58 - 20 x59 + 0 x60 - 77 x61 + 58 x62 - 96 x63 >= -206
    c26: 21 x0 - 70 x1 - 119 x2 - 81 x3 + 67 x4 + 125 x5 - 29 x6 + 125 x7 - 97 x8 - 45 x9 - 121 x10 + 103 x11 - 57 x12 + 97 x13 + 123 x14 + 7 x15 + 66 x16 + 119 x17 - 101 x18 - 117 x19 + 85 x20 - 40 x21 + 114 x22 + 125 x23 - 99 x24 + 11 x25 + 118 x26 + 62 x27 + 18 x28 + 11 x29 + 47 x30 - 26 x31 + 41 x32 + 57 x33 - 16 x34 + 34 x35 - 2 x36 + 62 x37 + 116 x38 - 28 x39 + 32 x40 - 67 x41 - 78 x42 + 91 x43 - 103 x44 - 9 x45 + 47 x46 + 41 x47 + 30 x48 + 72 x49 + 89 x50 - 37 x51 + 33 x52 + 125 x53 - 72 x54 + 42 x55 - 74 x56 + 112 x57 - 46 x58 - 123 x59 + 31 x60 - 38 x61 - 73 x62 - 83 x63 >= -64
    c27: -57 x0 + 32 x1 - 93 x2 + 92 x3 + 21 x4 - 45 x5 + 81 x6 - 69 x7 + 44 x8 + 0 x9 + 54 x10 + 71 x11 - 35 x12 - 24 x13 + 76 x14 + 30 x15 - 108 x16 - 120 x17 + 96 x18 - 67 x19 + 67 x20 + 115 x21 + 21 x22 + 36 x23 + 37 x24 - 109 x25 + 121 x26 + 41 x27 + 15 x28 - 97 x29 - 70 x30 + 15 x31 + 48 x32 - 108 x33 + 15 x34 - 39 x35 + 28 x36 + 116 x37 + 91 x38 - 32 x39 - 64 x40 - 15 x41 + 19 x42 + 46 x43 + 107 x44 - 87 x45 + 45 x46 - 108 x47 - 38 x48 + 100 x49 - 86 x50 + 19 x51 + 110 x52 + 66 x53 + 106 x54 + 102 x55 + 90 x56 + 68 x57 + 44 x58 - 83 x59 - 105 x60 - 23 x61 + 49 x62 - 114 x63 >= -341
    c28: -104 x0 - 65 x1 - 67 x2 - 64 x3 - 53 x4 - 22 x5 + 36 x6 - 123 x7 + 110 x8 - 32 x9 - 62 x10 + 43 x11 - 54 x12 - 89 x13 + 123 x14 - 123 x15 + 65 x16 - 16 x17 + 116 x18 - 94 x19 - 48 x20 + 5 x21 - 1 x22 + 109 x23 - 26 x24 + 122 x25 - 119 x26 - 53 x27 + 21 x28 + 65 x29 + 118 x30 - 25 x31 - 71 x32 + 59 x33 + 17 x34 + 34 x35 - 82 x36 - 53 x37 + 41 x38 + 90 x39 + 79 x40 - 12 x41 - 69 x42 + 117 x43 + 5 x44 - 16 x45 + 96 x46 + 83 x47 - 58 x48 + 95 x49 - 30 x50 - 38 x51 - 59 x52 - 100 x53 + 79 x54 - 14 x55 - 76 x56 - 38 x57 + 39 x58 - 122 x59 + 77 x60 + 87 x61 + 14 x62 - 79 x63 >= -523
    c29: 51 x0 - 87 x1 + 69 x2 - 56 x3 - 15 x4 + 114 x5 + 109 x6 - 55 x7 + 80 x8 - 97 x9 + 11 x10 + 81 x11 - 84 x12 - 47 x13 + 127 x14 - 101 x15 - 77 x16 - 45 x17 + 28 x18 - 13 x19 + 70 x20 + 79 x21 + 22 x22 + 60 x23 + 117 x24 - 127 x25 + 26 x26 + 91 x27 + 5 x28 - 39 x29 + 2 x30 + 20 x31 - 2 x32 + 40 x33 - 2 x34 - 101 x35 - 119 x36 + 90 x37 + 121 x38 - 49 x39 - 10 x40 - 65 x41 + 57 x42 + 109 x43 + 77 x44 - 81 x45 - 128 x46 + 70 x47 + 44 x48 + 54 x49 - 96 x50 - 87 x51 + 109 x52 - 5 x53 - 88 x54 - 38 x55 - 78 x56 - 23 x57 + 66 x58 - 3 x59 + 36 x60 - 58 x61 + 46 x62 + 35 x63 >= -376
    c30: -89 x0 - 5 x1 + 90 x2 - 23 x3 - 102 x4 + 4 x5 - 17 x6 + 25 x7 - 100 x8 - 53 x9 - 99 x10 - 31 x11 - 111 x12 + 100 x13 - 93 x14 + 20 x15 - 31 x16 - 86 x17 + 36 x18 + 57 x19 - 127 x20 + 105 x21 + 86 x22 + 64 x23 + 25 x24 - 128 x25 - 40 x26 - 14 x27 - 56 x28 - 21 x29 + 69 x30 - 49 x31 - 119 x32 - 22 x33 - 29 x34 - 23 x35 - 40 x36 - 67 x37 + 106 x38 + 69 x39 + 8 x40 + 12 x41 - 119 x42 + 56 x43 + 72 x44 - 80 x45 - 70 x46 + 59 x47 + 5 x48 - 17 x49 - 53 x50 + 14 x51 - 105 x52 - 5 x53 - 27 x54 + 114 x55 + 123 x56 - 98 x57 + 95 x58 + 123 x59 - 128 x60 + 122 x61 + 78 x62 - 78 x63 >= -658
    c31: 42 x0 + 63 x1 - 32 x2 - 109 x3 + 65 x4 - 38 x5 - 89 x6 - 58 x7 + 36 x8 - 10 x9 - 2 x10 - 52 x11 - 103 x12 + 103 x13 + 11 x14 + 35 x15 - 58 x16 - 127 x17 - 26 x18 - 98 x19 - 44 x20 - 92 x21 + 118 x22 + 46 x23 - 38 x24 - 82 x25 + 23 x26 + 25 x27 + 93 x28 + 104 x29 + 89 x30 - 82 x31 - 80 x32 + 70 x33 + 19 x34 - 74 x35 - 126 x36 + 93 x37 + 42 x38 - 6 x39 - 89 x40 - 21 x41 + 64 x42 + 105 x43 + 25 x44 + 47 x45 + 82 x46 + 34 x47 + 85 x48 - 13 x49 + 13 x50 - 22 x51 + 101 x52 + 85 x53 - 89 x54 - 107 x55 + 111 x56 - 60 x57 - 30 x58 + 1 x59 - 28 x60 + 124 x61 - 41 x62 + 63 x63 >= -278
    c32: 40 x0 + 102 x1 + 62 x2 - 6 x3 + 61 x4 - 47 x5 - 34 x6 - 118 x7 - 120 x8 + 89 x9 - 55 x10 + 60 x11 - 56 x12 + 122 x13 - 64 x14 + 61 x15 - 41 x16 + 33 x17 + 57 x18 + 49 x19 - 13 x20 + 24 x21 - 105 x22 - 61 x23 - 92 x24 + 35 x25 + 78 x26 + 53 x27 - 75 x28 - 75 x29 - 69 x30 - 60 x31 - 44 x32 - 60 x33 - 24 x34 - 96 x35 - 28 x36 - 108 x37 - 79 x38 - 33 x39 + 118 x40 + 15 x41 - 69 x42 - 102 x43 - 17 x44 + 61 x45 - 77 x46 + 75 x47 - 52 x48 + 35 x49 + 33 x50 + 27 x51 - 23 x52 + 108 x53 + 18 x54 - 4 x55 + 15 x56 - 31 x57 - 127 x58 - 102 x59 - 35 x60 - 38 x61 - 85 x62 + 12 x63 >= -1031
    c33: -36 x0 + 113 x1 + 64 x2 - 93 x3 - 26 x4 + 18 x5 - 112 x6 - 94 x7 - 93 x8 - 79 x9 + 5 x10 - 106 x11 - 53 x12 - 76 x13 + 18 x14 + 107 x15 - 92 x16 + 114 x17 - 27 x18 + 25 x19 + 37 x20 - 95 x21 - 110 x22 + 123 x23 + 25 x24 - 50 x25 - 11 x26 - 109 x27 + 38 x28 + 116 x29 - 122 x30 + 68 x31 + 93 x32 - 81 x33 - 106 x34 + 112 x35 - 123 x36 + 106 x37 + 39 x38 - 46 x39 - 46 x40 + 101 x41 - 107 x42 + 123 x43 - 49 x44 - 10 x45 + 27 x46 + 41 x47 - 8 x48 - 107 x49 + 123 x50 + 101 x51 - 12 x52 + 64 x53 + 64 x54 - 6 x55 + 16 x56 + 87 x57 + 106 x58 + 35 x59 - 10 x60 + 115 x61 - 86 x62 + 54 x63 >= -476
    c34: -71 x0 + 109 x1 - 5 x2 - 1 x3 - 20 x4 - 115 x5 - 55 x6 - 119 x7 - 42 x8 + 20 x9 - 118 x10 - 11 x11 - 31 x12 - 38 x13 - 3 x14 + 117 x15 + 74 x16 + 5 x17 - 98 x18 + 112 x19 + 58 x20 + 118 x21 + 93 x22 + 42 x23 - 9 x24 - 79 x25 + 43 x26 - 31 x27 - 97 x28 + 77 x29 + 34 x30 - 64 x31 + 91 x32 + 82 x33 - 56 x34 + 5 x35 + 16 x36 - 35 x37 - 79 x38 - 35 x39 + 39 x40 - 57 x41 - 8 x42 + 57 x43 - 40 x44 + 19 x45 - 30 x46 + 103 x47 + 97 x48 + 87 x49 - 123 x50 - 23 x51 - 36 x52 + 96 x53 - 128 x54 - 83 x55 + 125 x56 - 114 x57 - 113 x58 + 106 x59 - 26 x60 - 93 x61 + 51 x62 + 46 x63 >= -603
    c35: -71 x0 - 74 x1 - 86 x2 - 48 x3 + 82 x4 + 50 x5 + 68 x6 - 104 x7 - 31 x8 + 53 x9 + 86 x10 - 124 x11 - 15 x12 + 84 x13 + 121 x14 + 80 x15 - 32 x16 - 66 x17 + 49 x18 + 74 x19 + 114 x20 + 95 x21 - 91 x22 - 38 x23 + 29 x24 - 100 x25 + 87 x26 + 18 x27 + 81 x28 - 75 x29 - 6 x30 - 87 x31 + 15 x32 - 7 x33 - 108 x34 - 115 x35 - 94 x36 - 28 x37 - 31 x38 + 78 x39 + 37 x40 - 114 x41 - 109 x42 + 75 x43 - 7 x44 - 7 x45 - 9 x46 + 52 x47 - 54 x48 - 91 x49 - 57 x50 - 108 x51 - 86 x52 + 73 x53 - 108 x54 + 86 x55 + 86 x56 - 101 x57 + 68 x58 + 3 x59 - 44 x60 - 101 x61 + 18 x62 + 89 x63 >= -1067
    c36: -68 x0 - 65 x1 - 71 x2 - 21 x3 + 72 x4 + 3 x5 - 114 x6 - 76 x7 - 127 x8 - 40 x9 + 66 x10 - 4 x11 - 4 x12 + 38 x13 - 125 x14 + 117 x15 - 15 x16 - 124 x17 - 112 x18 + 65 x19 + 50 x20 - 16 x21 + 58 x22 + 13 x23 + 79 x24 - 100 x25 - 37 x26 - 7 x27 + 103 x28 + 59 x29 + 115 x30 - 38 x31 - 79 x32 + 55 x33 - 70 x34 + 108 x35 + 73 x36 + 72 x37 + 80 x38 - 111 x39 + 76 x40 + 113 x41 - 96 x42 + 78 x43 - 124 x44 + 91 x45 - 112 x46 + 71 x47 - 74 x48 + 33 x49 - 87 x50 - 54 x51 - 73 x52 + 99 x53 - 116 x54 - 28 x55 - 61 x56 - 103 x57 - 12 x58 + 26 x59 - 75 x60 - 124 x61 - 121 x62 - 101 x63 >= -1146
    c37: -59 x0 + 100 x1 - 45 x2 - 29 x3 - 95 x4 + 67 x5 + 110 x6 - 93 x7 + 7 x8 - 1 x9 - 78 x10 + 96 x11 - 63 x12 - 7 x13 - 12 x14 - 44 x15 - 124 x16 - 110 x17 + 95 x18 - 9 x19 + 59 x20 + 110 x21 - 78 x22 + 37 x23 - 57 x24 + 123 x25 - 101 x26 + 20 x27 - 110 x28 - 16 x29 - 128 x30 + 86 x31 + 110 x32 + 111 x33 + 91 x34 - 12 x35 - 25 x36 - 125 x37 - 72 x38 - 27 x39 + 60 x40 + 98 x41 + 38 x42 - 41 x43 + 98 x44 + 101 x45 - 19 x46 + 98 x47 + 14 x48 + 22 x49 - 65 x50 + 118 x51 - 38 x52 - 1 x53 + 5 x54 - 2 x55 + 58 x56 + 66 x57 + 21 x58 - 118 x59 - 26 x60 - 103 x61 - 60 x62 + 52 x63 >= -241
    c38: -22 x0 - 20 x1 - 13 x2 - 98 x3 - 48 x4 - 93 x5 + 101 x6 + 7 x7 - 86 x8 + 16 x9 - 27 x10 + 121 x11 + 76 x12 - 93 x13 + 106 x14 - 29 x15 - 9 x16 - 117 x17 - 3 x18 - 104 x19 - 29 x20 - 41 x21 + 35 x22 - 4 x23 - 60 x24 - 41 x25 - 112 x26 + 31 x27 - 106 x28 + 97 x29 + 24 x30 - 118 x31 + 112 x32 - 106 x33 - 91 x34 + 96 x35 - 102 x36 + 26 x37 - 34 x38 + 86 x39 - 10 x40 + 20 x41 + 79 x42 - 16 x43 + 101 x44 - 6 x45 + 42 x46 - 44 x47 + 21 x48 + 67 x49 - 78 x50 + 49 x51 + 72 x52 - 67 x53 - 63 x54 + 104 x55 - 24 x56 + 119 x57 + 123 x58 + 21 x59 - 127 x60 + 4 x61 + 18 x62 - 85 x63 >= -977
    c39: -88 x0 + 8 x1 + 50 x2 - 12 x3 + 26 x4 - 64 x5 - 103 x6 + 41 x7 - 127 x8 - 86 x9 + 40 x10 - 27 x11 + 84 x12 + 12 x13 + 119 x14 + 34 x15 - 20 x16 - 85 x17 - 15 x18 - 55 x19 + 20 x20 - 119 x21 + 27 x22 + 54 x23 - 25 x24 + 109 x25 - 124 x26 - 46 x27 + 49 x28 + 97 x29 + 55 x30 + 27 x31 - 85 x32 + 126 x33 + 56 x34 + 26 x35 + 20 x36 + 30 x37 - 88 x38 - 62 x39 - 18 x40 - 48 x41 - 75 x42 - 29 x43 + 67 x44 - 114 x45 + 86 x46 + 87 x47 - 88 x48 - 57 x49 + 10 x50 + 51 x51 + 16 x52 + 115 x53 - 100 x54 + 53 x55 - 48 x56 + 0 x57 + 16 x58 - 54 x59 - 2 x60 + 116 x61 + 20 x62 - 43 x63 >= -430
    c40: -27 x0 - 24 x1 - 56 x2 + 2 x3 + 27 x4 + 7 x5 - 90 x6 - 72 x7 + 97 x8 + 89 x9 - 42 x10 - 56 x11 - 107 x12 - 55 x13 - 79 x14 + 62 x15 - 74 x16 - 14 x17 + 12 x18 + 94 x19 + 23 x20 - 127 x21 + 15 x22 + 41 x23 - 117 x24 - 76 x25 + 54 x26 + 125 x27 - 101 x28 + 35 x29 - 8 x30 + 122 x31 - 87 x32 + 70 x33 - 41 x34 - 4 x35 - 11 x36 + 1 x37 + 55 x38 + 127 x39 + 112 x40 + 94 x41 + 64 x42 - 34 x43 - 98 x44 - 89 x45 + 69 x46 + 124 x47 + 28 x48 - 8 x49 - 100 x50 + 7 x51 + 99 x52 - 17 x53 - 105 x54 + 29 x55 - 85 x56 + 73 x57 - 38 x58 + 119 x59 + 19 x60 + 106 x61 - 35 x62 + 83 x63 >= -291
    c41: 43 x0 - 53 x1 + 115 x2 - 81 x3 + 75 x4 + 55 x5 + 120 x6 + 0 x7 + 66 x8 + 52 x9 - 19 x10 - 4 x11 + 21 x12 + 110 x13 + 70 x14 + 75 x15 - 58 x16 - 99 x17 - 81 x18 + 19 x19 + 114 x20 - 22 x21 + 80 x22 + 38 x23 + 119 x24 + 82 x25 - 64 x26 + 21 x27 - 66 x28 - 49 x29 + 70 x30 - 118 x31 + 2 x32 + 97 x33 - 46 x34 - 81 x35 + 18 x36 + 44 x37 - 118 x38 - 84 x39 + 105 x40 - 81 x41 - 44 x42 - 94 x43 + 73 x44 + 90 x45 + 53 x46 - 60 x47 + 109 x48 - 28 x49 + 108 x50 + 108 x51 - 73 x52 + 67 x53 - 21 x54 - 43 x55 - 15 x56 + 93 x57 - 7 x58 - 78 x59 + 107 x60 + 109 x61 + 85 x62 - 56 x63 >= 173
    c42: -49 x0 - 1 x1 + 58 x2 - 58 x3 + 50 x4 + 35 x5 + 24 x6 + 30 x7 - 4 x8 - 24 x9 + 111 x10 + 96 x11 - 1 x12 + 76 x13 + 18 x14 - 86 x15 + 45 x16 + 124 x17 - 32 x18 - 90 x19 + 96 x20 - 122 x21 + 68 x22 - 122 x23 + 125 x24 - 113 x25 - 56 x26 + 22 x27 + 16 x28 + 122 x29 - 5 x30 + 100 x31 - 117 x32 + 43 x33 + 94 x34 - 11 x35 + 26 x36 - 81 x37 - 58 x38 - 76 x39 - 82 x40 + 53 x41 - 36 x42 + 42 x43 + 98 x44 - 39 x45 + 16 x46 + 66 x47 - 30 x48 - 11 x49 - 3 x50 - 83 x51 + 38 x52 + 88 x53 + 82 x54 - 9 x55 + 60 x56 + 38 x57 + 0 x58 - 79 x59 + 20 x60 - 125 x61 + 21 x62 - 92 x63 >= -468
    c43: -60 x0 - 71 x1 + 127 x2 + 50 x3 + 42 x4 + 102 x5 - 121 x6 - 21 x7 + 62 x8 - 113 x9 - 72 x10 + 101 x11 - 100 x12 - 93 x13 - 110 x14 + 39 x15 + 122 x16 - 77 x17 - 55 x18 - 32 x19 - 28 x20 + 66 x21 + 56 x22 - 102 x23 - 18 x24 - 75 x25 + 54 x26 - 10 x27 + 53 x28 + 50 x29 - 106 x30 + 59 x31 - 94 x32 - 52 x33 - 4 x34 + 71 x35 - 48 x36 - 95 x37 - 72 x38 - 16 x39 - 24 x40 - 77 x41 + 120 x42 + 114 x43 + 122 x44 + 23 x45 + 37 x46 + 99 x47 - 128 x48 - 125 x49 + 13 x50 - 14 x51 - 116 x52 - 28 x53 - 78 x54 + 43 x55 - 30 x56 + 57 x57 + 100 x58 - 32 x59 - 7 x60 + 103 x61 - 21 x62 + 59 x63 >= -874
    c44: -2 x0 + 54 x1 + 84 x2 + 49 x3 - 56 x4 - 88 x5 + 15 x6 + 28 x7 - 30 x8 - 67 x9 - 102 x10 - 95 x11 + 49 x12 - 67 x13 - 11 x14 - 93 x15 - 88 x16 - 14 x17 + 35 x18 - 47 x19 + 9 x20 - 23 x21 - 112 x22 + 97 x23 - 89 x24 + 125 x25 - 28 x26 - 81 x27 + 85 x28 + 2 x29 + 4 x30 - 103 x31 + 5 x32 - 125 x33 - 103 x34 - 87 x35 - 97 x36 - 45 x37 + 18 x38 + 125 x39 - 84 x40 + 18 x41 + 44 x42 - 100 x43 + 30 x44 + 1 x45 + 65 x46 + 23 x47 + 108 x48 - 16 x49 + 104 x50 - 57 x51 + 94 x52 - 32 x53 - 114 x54 - 48 x55 + 58 x56 + 78 x57 - 85 x58 + 95 x59 + 58 x60 - 49 x61 + 71 x62 + 54 x63 >= -880
    c45: 5 x0 - 105 x1 - 88 x2 + 83 x3 + 44 x4 + 39 x5 + 81 x6 + 96 x7 - 11 x8 + 11 x9 + 47 x10 + 45 x11 - 65 x12 + 68 x13 + 68 x14 + 90 x15 - 117 x16 + 90 x17 - 17 x18 + 17 x19 - 52 x20 - 38 x21 + 7 x22 - 122 x23 - 116 x24 - 70 x25 + 52 x26 + 5 x27 + 32 x28 + 58 x29 - 75 x30 + 61 x31 + 94 x32 + 21 x33 + 101 x34 + 78 x35 - 2 x36 + 56 x37 + 18 x38 - 87 x39 + 89 x40 - 78 x41 - 33 x42 + 16 x43 + 40 x44 + 60 x45 - 128 x46 + 117 x47 - 44 x48 - 113 x49 + 33 x50 - 23 x51 - 24 x52 - 79 x53 + 7 x54 - 87 x55 - 30 x56 + 64 x57 - 57 x58 + 70 x59 - 21 x60 + 70 x61 + 31 x62 - 52 x63 >= -199
    c46: 51 x0 - 110 x1 + 19 x2 - 8 x3 - 29 x4 - 108 x5 - 46 x6 - 40 x7 + 10 x8 + 82 x9 + 65 x10 + 50 x11 + 93 x12 + 69 x13 + 124 x14 + 50 x15 + 24 x16 - 17 x17 - 1 x18 + 22 x19 + 95 x20 + 68 x21 - 78 x22 + 97 x23 + 122 x24 + 111 x25 + 46 x26 - 85 x27 + 18 x28 + 113 x29 + 44 x30 + 122 x31 + 55 x32 + 4 x33 + 55 x34 - 6 x35 + 37 x36 + 87 x37 + 37 x38 + 122 x39 - 94 x40 - 67 x41 + 22 x42 - 26 x43 - 34 x44 + 3 x45 + 75 x46 - 76 x47 + 48 x48 + 43 x49 - 115 x50 + 15 x51 - 77 x52 - 112 x53 - 53 x54 + 110 x55 - 108 x56 + 122 x57 + 9 x58 - 94 x59 + 59 x60 - 22 x61 + 1 x62 + 42 x63 >= 151
    c47: -104 x0 - 91 x1 + 29 x2 - 99 x3 - 62 x4 + 0 x5 + 86 x6 + 8 x7 + 82 x8 + 42 x9 - 62 x10 + 28 x11 + 14 x12 - 84 x13 - 14 x14 - 100 x15 - 17 x16 - 3 x17 + 2 x18 + 83 x19 + 50 x20 + 104 x21 + 87 x22 + 87 x23 - 109 x24 + 95 x25 - 127 x26 + 69 x27 - 123 x28 - 34 x29 - 117 x30 - 120 x31 - 89 x32 + 127 x33 - 70 x34 - 119 x35 + 120 x36 - 59 x37 - 80 x38 - 90 x39 + 56 x40 + 60 x41 - 24 x42 - 84 x43 - 68 x44 + 37 x45 - 81 x46 + 127 x47 - 77 x48 - 93 x49 - 7 x50 - 116 x51 + 14 x52 + 90 x53 + 37 x54 + 62 x55 - 102 x56 + 64 x57 + 8 x58 - 23 x59 - 100 x60 - 49 x61 + 19 x62 + 101 x63 >= -931
    c48: -63 x0 - 29 x1 - 78 x2 + 77 x3 - 124 x4 - 46 x5 + 4 x6 - 78 x7 + 17 x8 + 111 x9 - 22 x10 + 112 x11 + 121 x12 + 40 x13 - 123 x14 - 63 x15 + 1 x16 - 36 x17 + 64 x18 - 104 x19 - 35 x20 - 21 x21 + 58 x22 - 124 x23 + 39 x24 - 61 x25 - 109 x26 + 68 x27 - 54 x28 - 23 x29 - 41 x30 - 26 x31 + 42 x32 - 88 x33 - 15 x34 + 115 x35 + 77 x36 + 57 x37 - 5 x38 - 20 x39 + 17 x40 - 75 x41 + 29 x42 + 96 x43 + 118 x44 + 18 x45 + 41 x46 + 84 x47 + 75 x48 + 77 x49 + 7 x50 - 124 x51 - 55 x52 + 79 x53 + 60 x54 - 11 x55 + 27 x56 - 71 x57 - 94 x58 - 9 x59 - 73 x60 + 15 x61 - 25 x62 - 82 x63 >= -536
    c49: -41 x0 + 24 x1 - 84 x2 - 18 x3 + 115 x4 - 58 x5 - 55 x6 + 116 x7 - 19 x8 - 60 x9 + 117 x10 + 36 x11 - 9 x12 + 24 x13 + 53 x14 - 95 x15 + 88 x16 + 9 x17 + 31 x18 - 112 x19 + 65 x20 + 127 x21 + 110 x22 - 75 x23 + 89 x24 - 19 x25 + 88 x26 - 19 x27 + 79 x28 - 77 x29 + 118 x30 + 112 x31 - 14 x32 - 119 x33 + 77 x34 - 92 x35 - 125 x36 - 74 x37 + 30 x38 + 12 x39 - 49 x40 - 23 x41 + 119 x42 + 39 x43 + 125 x44 + 86 x45 + 79 x46 - 31 x47 + 14 x48 + 41 x49 - 36 x50 - 32 x51 - 127 x52 - 90 x53 - 3 x54 - 33 x55 + 90 x56 - 106 x57 - 107 x58 + 49 x59 + 122 x60 + 23 x61 + 33 x62 - 83 x63 >= -570
    c50: 114 x0 + 110 x1 - 87 x2 - 96 x3 + 42 x4 + 112 x5 + 84 x6 + 95 x7 + 38 x8 - 95 x9 + 42 x10 + 64 x11 - 25 x12 + 93 x13 + 116 x14 + 83 x15 - 31 x16 + 118 x17 - 112 x18 + 37 x19 + 47 x20 + 31 x21 + 91 x22 - 55 x23 - 7 x24 - 89 x25 - 11 x26 - 80 x27 + 83 x28 - 38 x29 - 31 x30 + 73 x31 + 70 x32 - 102 x33 + 116 x34 - 64 x35 + 115 x36 + 95 x37 + 40 x38 - 51 x39 + 47 x40 - 35 x41 - 116 x42 + 36 x43 - 71 x44 + 81 x45 + 65 x46 + 89 x47 + 120 x48 - 64 x49 + 58 x50 + 53 x51 + 112 x52 - 107 x53 + 14 x54 - 7 x55 - 7 x56 - 26 x57 - 110 x58 - 93 x59 - 83 x60 - 4 x61 - 62 x62 + 126 x63 >= 138
    c51: 10 x0 + 101 x1 - 91 x2 - 7 x3 + 110 x4 - 57 x5 - 9 x6 - 55 x7 - 68 x8 + 73 x9 - 49 x10 + 103 x11 + 39 x12 + 119 x13 + 91 x14 - 68 x15 + 86 x16 - 124 x17 - 14 x18 + 33 x19 + 68 x20 - 40 x21 + 16 x22 + 95 x23 - 16 x24 + 40 x25 - 71 x26 + 84 x27 - 117 x28 + 40 x29 - 54 x30 - 115 x31 - 123 x32 + 97 x33 - 10 x34 - 109 x35 - 92 x36 - 80 x37 + 0 x38 + 42 x39 + 5 x40 - 50 x41 - 98 x42 + 81 x43 + 75 x44 - 95 x45 + 32 x46 - 52 x47 - 84 x48 - 61 x49 - 29 x50 + 8 x51 + 78 x52 - 126 x53 + 15 x54 + 60 x55 - 80 x56 + 12 x57 - 26 x58 + 57 x59 + 85 x60 - 109 x61 + 22 x62 + 60 x63 >= -768
    c52: -23 x0 + 22 x1 + 126 x2 + 111 x3 - 92 x4 - 34 x5 - 111 x6 - 96 x7 + 92 x8 - 68 x9 + 23 x10 + 33 x11 - 45 x12 - 21 x13 - 32 x14 + 23 x15 - 15 x16 + 60 x17 + 125 x18 + 119 x19 - 25 x20 - 39 x21 - 63 x22 - 10 x23 + 22 x24 + 118 x25 - 98 x26 + 97 x27 + 95 x28 - 59 x29 - 95 x30 + 6 x31 - 55 x32 + 87 x33 - 16 x34 - 124 x35 - 3 x36 - 44 x37 + 104 x38 + 92 x39 + 22 x40 - 1 x41 - 123 x42 - 92 x43 + 42 x44 + 96 x45 + 7 x46 + 63 x47 - 70 x48 + 66 x49 - 40 x50 - 7 x51 + 49 x52 + 103 x53 - 8 x54 + 70 x55 + 50 x56 + 13 x57 + 52 x58 + 11 x59 + 2 x60 + 105 x61 - 104 x62 + 118 x63 >= 233
    c53: -92 x0 - 111 x1 - 62 x2 - 83 x3 - 18 x4 - 7 x5 - 24 x6 - 114 x7 - 35 x8 + 86 x9 + 28 x10 - 5 x11 + 45 x12 + 21 x13 + 85 x14 + 49 x15 - 122 x16 + 24 x17 - 99 x18 - 40 x19 - 26 x20 + 29 x21 + 4 x22 - 97 x23 - 18 x24 - 64 x25 + 85 x26 - 56 x27 + 122 x28 + 14 x29 + 75 x30 - 105 x31 + 81 x32 + 24 x33 + 84 x34 - 25 x35 - 14 x36 - 76 x37 + 0 x38 + 69 x39 + 21 x40 + 19 x41 + 82 x42 - 79 x43 - 89 x44 + 75 x45 + 89 x46 - 13 x47 + 109 x48 + 57 x49 + 94 x50 + 62 x51 - 31 x52 + 122 x53 - 100 x54 + 80 x55 - 70 x56 + 62 x57 - 79 x58 + 83 x59 + 7 x60 + 123 x61 + 70 x62 - 115 x63 >= -366
    c54: -102 x0 + 119 x1 - 49 x2 - 18 x3 - 53 x4 + 57 x5 + 21 x6 + 21 x7 - 3 x8 + 17 x9 - 3 x10 - 5 x11 + 114 x12 + 28 x13 + 24 x14 + 118 x15 + 27 x16 - 81 x17 - 82 x18 + 112 x19 - 42 x20 - 95 x21 + 46 x22 + 53 x23 - 66 x24 - 53 x25 - 85 x26 - 52 x27 + 37 x28 - 85 x29 + 43 x30 - 128 x31 - 123 x32 + 64 x33 + 49 x34 + 33 x35 + 37 x36 - 98 x37 + 35 x38 + 9 x39 - 78 x40 - 119 x41 + 94 x42 + 73 x43 - 10 x44 + 110 x45 + 94 x46 - 76 x47 - 99 x48 - 56 x49 + 113 x50 - 37 x51 + 94 x52 - 108 x53 + 114 x54 - 1 x55 - 95 x56 + 43 x57 + 39 x58 - 117 x59 - 109 x60 + 29 x61 - 124 x62 - 32 x63 >= -723
    c55: -37 x0 - 74 x1 - 24 x2 + 14 x3 - 119 x4 - 19 x5 + 37 x6 + 121 x7 - 73 x8 - 65 x9 + 28 x10 - 95 x11 - 21 x12 + 28 x13 + 17 x14 - 1 x15 - 70 x16 + 85 x17 + 1 x18 + 32 x19 + 31 x20 - 76 x21 - 40 x22 + 107 x23 - 64 x24 - 3 x25 - 103 x26 + 86 x27 + 36 x28 - 58 x29 + 0 x30 - 82 x31 + 71 x32 - 104 x33 + 47 x34 + 89 x35 - 71 x36 - 29 x37 - 56 x38 + 67 x39 + 64 x40 + 67 x41 - 115 x42 + 48 x43 + 64 x44 + 117 x45 - 45 x46 - 64 x47 - 16 x48 - 114 x49 - 75 x50 + 50 x51 + 7 x52 + 72 x53 - 13 x54 - 46 x55 - 89 x56 + 90 x57 - 17 x58 + 13 x59 + 97 x60 + 59 x61 + 118 x62 + 29 x63 >= -486
    c56: 99 x0 - 111 x1 + 29 x2 - 124 x3 + 28 x4 + 90 x5 - 68 x6 + 122 x7 + 115 x8 + 12 x9 - 125 x10 - 60 x11 + 42 x12 - 60 x13 + 68 x14 + 21 x15 - 102 x16 + 63 x17 + 4 x18 - 110 x19 + 11 x20 + 107 x21 - 31 x22 - 58 x23 - 8 x24 + 0 x25 + 59 x26 - 90 x27 - 120 x28 + 99 x29 - 4 x30 + 61 x31 - 72 x32 - 99 x33 + 30 x34 + 70 x35 + 107 x36 - 91 x37 + 20 x38 + 21 x39 - 46 x40 - 111 x41 + 9 x42 - 117 x43 - 74 x44 - 22 x45 + 43 x46 - 17 x47 + 127 x48 + 124 x49 - 28 x50 + 102 x51 - 121 x52 - 103 x53 - 26 x54 + 30 x55 + 3 x56 - 30 x57 + 30 x58 + 53 x59 + 28 x60 + 93 x61 + 108 x62 + 95 x63 >= -291
    c57: -1 x0 - 66 x1 + 105 x2 + 20 x3 - 5 x4 + 49 x5 - 128 x6 + 0 x7 + 99 x8 - 99 x9 + 14 x10 + 37 x11 + 112 x12 + 122 x13 - 127 x14 + 31 x15 - 56 x16 - 98 x17 + 23 x18 + 95 x19 - 27 x20 + 24 x21 - 99 x22 + 56 x23 + 98 x24 + 74 x25 + 3 x26 - 36 x27 + 14 x28 - 110 x29 + 106 x30 + 74 x31 + 49 x32 + 102 x33 - 46 x34 - 60 x35 + 25 x36 + 98 x37 - 33 x38 + 125 x39 - 54 x40 - 97 x41 + 72 x42 - 56 x43 + 10 x44 - 3 x45 - 97 x46 + 84 x47 - 62 x48 - 94 x49 + 75 x50 - 109 x51 - 72 x52 - 110 x53 + 83 x54 - 67 x55 - 14 x56 + 14 x57 - 58 x58 + 29 x59 - 35 x60 - 14 x61 + 88 x62 - 48 x63 >= -109
    c58: 81 x0 + 18 x1 - 24 x2 + 78 x3 + 51 x4 + 18 x5 + 73 x6 + 95 x7 - 109 x8 + 101 x9 - 101 x10 - 116 x11 + 55 x12 + 4 x13 + 109 x14 + 29 x15 - 19 x16 + 97 x17 - 107 x18 + 79 x19 + 77 x20 + 114 x21 - 27 x22 - 107 x23 - 115 x24 + 126 x25 + 123 x26 + 122 x27 + 18 x28 - 54 x29 - 59 x30 - 46 x31 + 2 x32 - 19 x33 - 81 x34 + 117 x35 + 86 x36 - 124 x37 + 80 x38 - 62 x39 - 106 x40 - 90 x41 + 116 x42 + 24 x43 + 59 x44 + 89 x45 - 76 x46 + 14 x47 - 53 x48 - 25 x49 - 70 x50 + 109 x51 + 52 x52 + 118 x53 - 105 x54 - 85 x55 + 106 x56 + 123 x57 + 1 x58 - 91 x59 + 53 x60 - 126 x61 + 58 x62 - 74 x63 >= -215
    c59: 10 x0 - 35 x1 - 104 x2 + 8 x3 - 8 x4 - 109 x5 + 74 x6 + 12 x7 - 1 x8 - 71 x9 - 95 x10 - 24 x11 - 39 x12 + 78 x13 + 77 x14 + 0 x15 - 112 x16 - 68 x17 - 99 x18 + 108 x19 - 67 x20 + 89 x21 - 28 x22 - 37 x23 - 111 x24 + 65 x25 - 109 x26 - 101 x27 + 52 x28 - 39 x29 - 38 x30 + 10 x31 + 5 x32 - 65 x33 - 31 x34 - 115 x35 + 81 x36 + 2 x37 + 111 x38 - 33 x39 - 8 x40 + 25 x41 + 42 x42 + 63 x43 + 127 x44 - 93 x45 + 62 x46 + 114 x47 + 67 x48 + 5 x49 - 22 x50 + 67 x51 + 62 x52 + 47 x53 - 81 x54 - 72 x55 - 47 x56 + 35 x57 - 50 x58 - 72 x59 + 90 x60 - 94 x61 + 30 x62 + 15 x63 >= -814
    c60: 45 x0 - 21 x1 + 125 x2 - 89 x3 + 66 x4 - 83 x5 + 77 x6 + 37 x7 + 125 x8 - 12 x9 - 3 x10 - 30 x11 - 68 x12 + 15 x13 - 76 x14 + 116 x15 + 108 x16 + 86 x17 + 92 x18 - 1 x19 + 54 x20 + 48 x21 - 10 x22 + 94 x23 + 120 x24 - 76 x25 - 122 x26 + 9 x27 + 11 x28 + 116 x29 + 45 x30 - 102 x31 - 15 x32 - 75 x33 - 120 x34 + 90 x35 + 20 x36 + 57 x37 + 124 x38 + 6 x39 + 12 x40 - 126 x41 - 6 x42 - 35 x43 + 13 x44 - 92 x45 - 61 x46 + 29 x47 - 101 x48 - 34 x49 + 67 x50 - 79 x51 - 6 x52 + 105 x53 - 48 x54 + 79 x55 + 64 x56 - 73 x57 + 89 x58 + 47 x59 - 116 x60 - 69 x61 - 101 x62 - 37 x63 >= -664
    c61: 50 x0 + 86 x1 + 49 x2 - 7 x3 - 119 x4 - 6 x5 - 86 x6 - 48 x7 + 41 x8 + 115 x9 + 77 x10 + 87 x11 + 53 x12 + 47 x13 - 128 x14 + 98 x15 - 39 x16 - 27 x17 + 103 x18 - 112 x19 + 105 x20 + 84 x21 - 2 x22 + 99 x23 - 114 x24 + 3 x25 + 83 x26 - 56 x27 - 18 x28 + 79 x29 + 26 x30 - 116 x31 + 105 x32 - 101 x33 - 27 x34 + 66 x35 + 125 x36 + 38 x37 - 94 x38 + 74 x39 + 5 x40 + 67 x41 - 110 x42 - 4 x43 + 33 x44 + 65 x45 + 124 x46 - 24 x47 + 67 x48 + 38 x49 - 50 x50 - 74 x51 + 88 x52 + 19 x53 - 28 x54 + 35 x55 + 36 x56 + 94 x57 + 45 x58 + 14 x59 + 11 x60 - 15 x61 - 42 x62 - 115 x63 >= -67
    c62: -11 x0 + 101 x1 + 77 x2 + 77 x3 + 126 x4 + 76 x5 - 92 x6 - 6 x7 + 28 x8 + 116 x9 - 20 x10 + 55 x11 + 98 x12 - 124 x13 - 98 x14 - 60 x15 + 2 x16 + 108 x17 - 31 x18 + 95 x19 + 123 x20 + 76 x21 + 94 x22 - 62 x23 + 8 x24 - 115 x25 + 45 x26 + 116 x27 - 23 x28 - 127 x29 + 119 x30 - 77 x31 + 93 x32 - 23 x33 + 115 x34 - 111 x35 - 41 x36 - 60 x37 + 105 x38 + 100 x39 - 22 x40 + 10 x41 - 114 x42 + 90 x43 + 42 x44 + 37 x45 - 84 x46 - 18 x47 + 80 x48 - 128 x49 + 80 x50 + 117 x51 - 11 x52 - 113 x53 + 9 x54 - 71 x55 - 89 x56 + 88 x57 - 29 x58 + 46 x59 + 69 x60 - 124 x61 - 112 x62 + 86 x63 >= -257
    c63: -76 x0 - 83 x1 + 48 x2 + 98 x3 - 125 x4 + 26 x5 + 18 x6 + 80 x7 - 45 x8 + 41 x9 - 47 x10 - 51 x11 + 40 x12 - 43 x13 + 4 x14 - 35 x15 + 125 x16 + 127 x17 + 58 x18 - 102 x19 - 59 x20 - 61 x21 + 106 x22 + 84 x23 - 83 x24 - 9 x25 + 100 x26 + 92 x27 - 40 x28 + 109 x29 + 33 x30 + 58 x31 + 68 x32 - 27 x33 + 109 x34 + 28 x35 + 4 x36 - 125 x37 + 53 x38 + 66 x39 + 30 x40 + 62 x41 - 33 x42 + 112 x43 + 126 x44 - 96 x45 + 12 x46 - 85 x47 + 29 x48 - 2 x49 - 38 x50 + 72 x51 - 80 x52 - 37 x53 - 59 x54 + 32 x55 + 48 x56 - 25 x57 + 118 x58 + 117 x59 + 17 x60 + 8 x61 - 119 x62 + 10 x63 >= -137
Binary
    x0 x1 x2 x3 x4 x5 x6 x7 x8 x9 x10 x11 x12 x13 x14 x15 x16 x17 x18 x19 x20 x21 x22 x23 x24 x25 x26 x27 x28 x29 x30 x31 x32 x33 x34 x35 x36 x37 x38 x39 x40 x41 x42 x43 x44 x45 x46 x47 x48 x49 x50 x51 x52 x53 x54 x55 x56 x57 x58 x59 x60 x61 x62 x63
End
